NAME: concorde91
TYPE: TSP
DIMENSION: 15 
EDGE_WEIGHT_TYPE: EUC_2D
NODE_COORD_SECTION
1 7 11
2 20 0
3 89 65
4 92 5
5 62 13
6 36 97
7 68 26
8 41 0
9 67 100
10 91 65
11 41 73
12 15 72
13 38 83
14 47 14
15 24 68
